; benchmark generated from python API
(set-info :status unknown)
(declare-fun s () Int)
(define-funs-rec ( ( T2_06 ((x!1 Int)) Int)
                   ( p2_06 ((x!1 Int)) Int)
                   ( T2_01 ((x!1 Int)) Int)
                   ( p2_01 ((x!1 Int)) Int))
                 ( ((_ p2_06 0) x!1)
                   (let ((a!1 (mod (- x!1 ((_ p2_06 0) (div x!1 2))) 2)))
                     (ite (= x!1 0) 0 a!1))
                   (mod ((_ p2_01 0) x!1) 2)
                   (ite (= x!1 0) 0 (+ ((_ p2_01 0) (div x!1 2)) x!1))))
(assert
 (forall ((n Int) )(let ((?x426 ((_ T2_06 0) n)))
 (let (($x407 (= ?x426 n)))
 (let ((?x424 ((_ T2_01 0) n)))
 (let (($x430 (= ?x424 n)))
 (let (($x454 (and $x430 $x407)))
 (let (($x387 (< n s)))
 (let (($x455 (>= n 0)))
 (let (($x412 (and $x455 $x387)))
 (=> $x412 $x454))))))))))
 )
(assert
 (let ((?x416 ((_ T2_01 0) s)))
 (= ?x416 1)))
(assert
 (let ((?x418 ((_ T2_06 0) s)))
 (= ?x418 1)))
(assert
 (forall ((n Int) )(let ((?x426 ((_ T2_06 0) n)))
(let ((?x424 ((_ T2_01 0) n)))
(let (($x465 (= ?x424 ?x426)))
(let (($x455 (>= n 0)))
(=> $x455 $x465))))))
)
(check-sat)
